
Log started (V11.0.0) Mon Apr 14 08:33:03 2008

Tried aggregator 1 time.
Reduced MIP has 530 rows, 15001 columns, and 30030 nonzeros.
Presolve time =    0.09 sec.
Clique table members: 500.
MIP emphasis: balance optimality and feasibility.
MIP search method: dynamic search.
Parallel mode: none, using 1 thread.
Root relaxation solution time =    0.48 sec.

        Nodes                                         Cuts/
   Node  Left     Objective  IInf  Best Integer     Best Node    ItCnt     Gap

*     0+    0                        25389.0000       60.2762     1076   99.76%
*     0+    0                           69.0000       60.2762     1076   12.64%
      0     0       61.0000    45       69.0000      Fract: 8     1094   11.59%
*     0+    0                           68.0000       61.0000     1094   10.29%
*     0+    0                           67.0000       61.0000     1094    8.96%

Repeating presolve.
Tried aggregator 1 time.
MIP Presolve eliminated 0 rows and 5018 columns.
Reduced MIP has 530 rows, 9983 columns, and 19994 nonzeros.
Tried aggregator 1 time.
Represolve time =    0.42 sec.
Clique table members: 842.
MIP emphasis: balance optimality and feasibility.
MIP search method: dynamic search.
Parallel mode: none, using 1 thread.
Root relaxation solution time =    0.31 sec.

        Nodes                                         Cuts/
   Node  Left     Objective  IInf  Best Integer     Best Node    ItCnt     Gap

      0     0       61.0000    60       67.0000       61.0000      918    8.96%
      0     2       61.0000    60       67.0000       61.0000      918    8.96%
*    50+   50                           65.0000       61.0000     3457    6.15%
    100    96       62.0343    58       65.0000       61.0000     6109    6.15%
*   130+  114                           64.0000       61.0000     7437    4.69%
    200   170       62.0000    42       64.0000       61.0000    11410    4.69%
*   250+  187                           63.0000       61.0000    14246    3.17%
    300   223       62.0000    44       63.0000       61.0000    18571    3.17%
    400   303    infeasible             63.0000       61.0000    26556    3.17%
    500   391       62.0000    36       63.0000       61.0000    31885    3.17%
*   504+  262                           62.0000       61.0000    33652    1.61%
    600   239       61.0000    76       62.0000       61.0000    49676    1.61%
    700   208       61.0000   150       62.0000       61.0000    74918    1.61%
    800   198       61.0000    97       62.0000       61.0000    98094    1.61%
    900   235       61.0000    51       62.0000       61.0000   115081    1.61%
   1000   295       61.0000    78       62.0000       61.0000   139894    1.61%
Elapsed time = 121.05 sec. (tree size =  3.89 MB, solutions = 8)
   1100   340       61.0000   104       62.0000       61.0000   166872    1.61%
   1200   380       61.0000    59       62.0000       61.0000   199162    1.61%
   1300   442       61.0000    79       62.0000       61.0000   221849    1.61%
   1400   514       61.0000    81       62.0000       61.0000   240378    1.61%
   1500   562    infeasible             62.0000       61.0000   266130    1.61%
   1600   618    infeasible             62.0000       61.0000   294785    1.61%
   1700   672    infeasible             62.0000       61.0000   321977    1.61%
   1800   732    infeasible             62.0000       61.0000   355071    1.61%
   1900   792       61.0000   139       62.0000       61.0000   388427    1.61%
   2000   850       61.0000    89       62.0000       61.0000   427298    1.61%
Elapsed time = 363.42 sec. (tree size = 14.85 MB, solutions = 8)
   2100   924       61.0000   124       62.0000       61.0000   451574    1.61%
   2200   988       61.0000   104       62.0000       61.0000   482506    1.61%
   2300  1052    infeasible             62.0000       61.0000   510895    1.61%
   2400  1138       61.0000    95       62.0000       61.0000   532378    1.61%
   2500  1210       61.0000   117       62.0000       61.0000   558361    1.61%
   2600  1282       61.0000    71       62.0000       61.0000   584508    1.61%
   2700  1348    infeasible             62.0000       61.0000   610810    1.61%
   2800  1390       61.0000   102       62.0000       61.0000   655074    1.61%
   2900  1440       61.0000   112       62.0000       61.0000   694422    1.61%
   3000  1516       61.0000   129       62.0000       61.0000   717640    1.61%
Elapsed time = 680.73 sec. (tree size = 32.82 MB, solutions = 8)
   3100  1598       61.0000   102       62.0000       61.0000   738381    1.61%
   3200  1678       61.0000   119       62.0000       61.0000   762611    1.61%
   3300  1750       61.0000   140       62.0000       61.0000   787855    1.61%
   3400  1822       61.0000   117       62.0000       61.0000   810565    1.61%
   3500  1900       61.0000   118       62.0000       61.0000   830239    1.61%
   3600  1968       61.0000   108       62.0000       61.0000   860809    1.61%
   3700  2034       61.0000    88       62.0000       61.0000   890202    1.61%
   3800  2098       61.0000   141       62.0000       61.0000   924351    1.61%
   3900  2178       61.0000    76       62.0000       61.0000   949244    1.61%
   4000  2248       61.0000    95       62.0000       61.0000   980320    1.61%
Elapsed time = 1020.63 sec. (tree size = 57.25 MB, solutions = 8)
   4100  2332       61.0000   139       62.0000       61.0000   998795    1.61%
   4200  2390       61.0000   143       62.0000       61.0000  1037545    1.61%
   4300  2464       61.0000   133       62.0000       61.0000  1064102    1.61%
   4400  2512    infeasible             62.0000       61.0000  1102290    1.61%
   4500  2574       61.0000   121       62.0000       61.0000  1140689    1.61%
   4600  2636    infeasible             62.0000       61.0000  1169858    1.61%
   4700  2720    infeasible             62.0000       61.0000  1192756    1.61%
   4800  2794       61.0000   119       62.0000       61.0000  1221186    1.61%
   4900  2852       61.0000    93       62.0000       61.0000  1258800    1.61%
   5000  2916       61.0000   116       62.0000       61.0000  1288291    1.61%
Elapsed time = 1476.45 sec. (tree size = 83.33 MB, solutions = 8)
   5100  2974    infeasible             62.0000       61.0000  1323992    1.61%
   5200  3030       61.0000   103       62.0000       61.0000  1359457    1.61%
   5300  3090       61.0000    90       62.0000       61.0000  1387652    1.61%
   5400  3144       61.0000   106       62.0000       61.0000  1418822    1.61%
   5500  3212    infeasible             62.0000       61.0000  1447303    1.61%
   5600  3284       61.0000   104       62.0000       61.0000  1477815    1.61%
   5700  3334       61.0000   120       62.0000       61.0000  1508974    1.61%
   5800  3388       61.0000   168       62.0000       61.0000  1543648    1.61%
   5900  3454       61.0000   104       62.0000       61.0000  1576553    1.61%
   6000  3526       61.0000   150       62.0000       61.0000  1600937    1.61%
Elapsed time = 1970.26 sec. (tree size = 108.51 MB, solutions = 8)
   6100  3608       61.0000    44       62.0000       61.0000  1626910    1.61%
   6200  3692       61.0000    86       62.0000       61.0000  1645722    1.61%
   6300  3760       61.0000    75       62.0000       61.0000  1671169    1.61%
   6400  3826       61.0000   134       62.0000       61.0000  1701622    1.61%
   6500  3910       61.0000   124       62.0000       61.0000  1718228    1.61%
   6600  3978       61.0000   114       62.0000       61.0000  1746948    1.61%
   6700  4042       61.0000    53       62.0000       61.0000  1773413    1.61%
   6800  4122       61.0000   109       62.0000       61.0000  1794805    1.61%
   6900  4158       61.0000    97       62.0000       61.0000  1841389    1.61%
   7000  4206    infeasible             62.0000       61.0000  1872719    1.61%
Elapsed time = 2356.70 sec. (tree size = 135.94 MB, solutions = 8)
Nodefile size =  8.83 MB (8.39 MB after compression)
   7100  4262       61.0000    66       62.0000       61.0000  1902761    1.61%
   7200  4314       61.0000    91       62.0000       61.0000  1935414    1.61%
   7300  4346       61.0000    37       62.0000       61.0000  1971147    1.61%
   7400  4394       61.0000   105       62.0000       61.0000  2003619    1.61%
   7500  4426       61.0000   121       62.0000       61.0000  2041951    1.61%
   7600  4446       61.0000    99       62.0000       61.0000  2087061    1.61%
   7700  4490       61.0000    98       62.0000       61.0000  2124846    1.61%
   7800  4552       61.0000    79       62.0000       61.0000  2154202    1.61%
   7900  4590       61.0000   124       62.0000       61.0000  2189159    1.61%
   8000  4646       61.0000    82       62.0000       61.0000  2223360    1.61%
Elapsed time = 2849.89 sec. (tree size = 153.57 MB, solutions = 8)
Nodefile size = 26.43 MB (25.07 MB after compression)
   8100  4710       61.0000    70       62.0000       61.0000  2249592    1.61%
   8200  4768    infeasible             62.0000       61.0000  2284467    1.61%
   8300  4824       61.0000    71       62.0000       61.0000  2313809    1.61%
   8400  4884       61.0000   101       62.0000       61.0000  2344108    1.61%
   8500  4938       61.0000   137       62.0000       61.0000  2374447    1.61%
   8600  4962    infeasible             62.0000       61.0000  2417946    1.61%
   8700  5026    infeasible             62.0000       61.0000  2442052    1.61%
   8800  5100       61.0000   107       62.0000       61.0000  2461809    1.61%
   8900  5136       61.0000    82       62.0000       61.0000  2499093    1.61%
   9000  5166       61.0000   107       62.0000       61.0000  2538024    1.61%
Elapsed time = 3282.83 sec. (tree size = 174.54 MB, solutions = 8)
Nodefile size = 47.00 MB (44.64 MB after compression)
   9100  5222    infeasible             62.0000       61.0000  2575524    1.61%
   9200  5268       61.0000    75       62.0000       61.0000  2607819    1.61%
   9300  5326       61.0000    52       62.0000       61.0000  2638397    1.61%
   9400  5372       61.0000   123       62.0000       61.0000  2674437    1.61%
   9500  5452       61.0000   107       62.0000       61.0000  2703094    1.61%
   9600  5542       61.0000   151       62.0000       61.0000  2721570    1.61%
   9700  5630       61.0000   110       62.0000       61.0000  2736061    1.61%
   9800  5706       61.0000    96       62.0000       61.0000  2758911    1.61%
   9900  5778       61.0000    66       62.0000       61.0000  2786845    1.61%
  10000  5860       61.0000    99       62.0000       61.0000  2811479    1.61%
Elapsed time = 3681.58 sec. (tree size = 202.47 MB, solutions = 8)
Nodefile size = 75.32 MB (71.62 MB after compression)
  10100  5924       61.0000   106       62.0000       61.0000  2838766    1.61%
  10200  5988       61.0000    99       62.0000       61.0000  2865962    1.61%
  10300  6048    infeasible             62.0000       61.0000  2899169    1.61%
  10400  6108       61.0000   102       62.0000       61.0000  2934194    1.61%
  10500  6194       61.0000   136       62.0000       61.0000  2953789    1.61%
  10600  6270       61.0000    76       62.0000       61.0000  2983105    1.61%
  10700  6346       61.0000   133       62.0000       61.0000  3005988    1.61%
  10800  6414    infeasible             62.0000       61.0000  3034504    1.61%
  10900  6476       61.0000   112       62.0000       61.0000  3063771    1.61%
  11000  6528       61.0000    88       62.0000       61.0000  3090617    1.61%
Elapsed time = 4079.83 sec. (tree size = 229.36 MB, solutions = 8)
Nodefile size = 101.80 MB (96.95 MB after compression)
  11100  6602       61.0000    57       62.0000       61.0000  3115860    1.61%
  11200  6662       61.0000    99       62.0000       61.0000  3146455    1.61%
  11300  6712    infeasible             62.0000       61.0000  3178222    1.61%
  11400  6764    infeasible             62.0000       61.0000  3206596    1.61%
  11500  6804       61.0000    57       62.0000       61.0000  3244950    1.61%
  11600  6848       61.0000    68       62.0000       61.0000  3282613    1.61%
  11700  6878    infeasible             62.0000       61.0000  3318573    1.61%
  11800  6918       61.0000    70       62.0000       61.0000  3350079    1.61%
  11900  6988       61.0000    93       62.0000       61.0000  3374997    1.61%
* 11927     0      integral     0       61.0000       61.0000  3380490    0.00%

Cover cuts applied:  2648
Gomory fractional cuts applied:  2

Solution pool: 9 solutions saved.

MIP - Integer optimal solution:  Objective = 6.1000000000e+001
Solution time = 4478.36 sec.  Iterations = 3380490  Nodes = 11928


Incumbent solution
Variable Name           Solution Value
Cmax                         61.000000
X_1_3                         1.000000
X_2_22                        1.000000
X_3_21                        1.000000
X_4_9                         1.000000
X_5_12                        1.000000
X_6_5                         1.000000
X_7_2                         1.000000
X_8_13                        1.000000
X_9_15                        1.000000
X_10_25                       1.000000
X_11_22                       1.000000
X_12_14                       1.000000
X_13_3                        1.000000
X_14_12                       1.000000
X_15_14                       1.000000
X_16_30                       1.000000
X_17_23                       1.000000
X_18_21                       1.000000
X_19_20                       1.000000
X_20_6                        1.000000
X_21_26                       1.000000
X_22_21                       1.000000
X_23_17                       1.000000
X_24_15                       1.000000
X_25_8                        1.000000
X_26_7                        1.000000
X_27_18                       1.000000
X_28_5                        1.000000
X_29_12                       1.000000
X_30_15                       1.000000
X_31_3                        1.000000
X_32_28                       1.000000
X_33_26                       1.000000
X_34_1                        1.000000
X_35_28                       1.000000
X_36_7                        1.000000
X_37_10                       1.000000
X_38_20                       1.000000
X_39_28                       1.000000
X_40_21                       1.000000
X_41_2                        1.000000
X_42_6                        1.000000
X_43_1                        1.000000
X_44_19                       1.000000
X_45_4                        1.000000
X_46_22                       1.000000
X_47_2                        1.000000
X_48_24                       1.000000
X_49_16                       1.000000
X_50_8                        1.000000
X_51_3                        1.000000
X_52_7                        1.000000
X_53_5                        1.000000
X_54_2                        1.000000
X_55_24                       1.000000
X_56_16                       1.000000
X_57_2                        1.000000
X_58_18                       1.000000
X_59_10                       1.000000
X_60_21                       1.000000
X_61_14                       1.000000
X_62_5                        1.000000
X_63_4                        1.000000
X_64_26                       1.000000
X_65_24                       1.000000
X_66_2                        1.000000
X_67_20                       1.000000
X_68_28                       1.000000
X_69_29                       1.000000
X_70_12                       1.000000
X_71_6                        1.000000
X_72_5                        1.000000
X_73_22                       1.000000
X_74_14                       1.000000
X_75_10                       1.000000
X_76_9                        1.000000
X_77_6                        1.000000
X_78_11                       1.000000
X_79_12                       1.000000
X_80_25                       1.000000
X_81_28                       1.000000
X_82_27                       1.000000
X_83_21                       1.000000
X_84_3                        1.000000
X_85_8                        1.000000
X_86_15                       1.000000
X_87_8                        1.000000
X_88_3                        1.000000
X_89_12                       1.000000
X_90_11                       1.000000
X_91_2                        1.000000
X_92_29                       1.000000
X_93_23                       1.000000
X_94_6                        1.000000
X_95_24                       1.000000
X_96_7                        1.000000
X_97_24                       1.000000
X_98_11                       1.000000
X_99_14                       1.000000
X_100_25                      1.000000
X_101_2                       1.000000
X_102_29                      1.000000
X_103_30                      1.000000
X_104_20                      1.000000
X_105_22                      1.000000
X_106_17                      1.000000
X_107_5                       1.000000
X_108_22                      1.000000
X_109_13                      1.000000
X_110_6                       1.000000
X_111_29                      1.000000
X_112_7                       1.000000
X_113_24                      1.000000
X_114_18                      1.000000
X_115_4                       1.000000
X_116_19                      1.000000
X_117_9                       1.000000
X_118_21                      1.000000
X_119_8                       1.000000
X_120_23                      1.000000
X_121_28                      1.000000
X_122_2                       1.000000
X_123_6                       1.000000
X_124_27                      1.000000
X_125_16                      1.000000
X_126_26                      1.000000
X_127_3                       1.000000
X_128_10                      1.000000
X_129_14                      1.000000
X_130_15                      1.000000
X_131_6                       1.000000
X_132_22                      1.000000
X_133_25                      1.000000
X_134_27                      1.000000
X_135_9                       1.000000
X_136_1                       1.000000
X_137_14                      1.000000
X_138_10                      1.000000
X_139_18                      1.000000
X_140_12                      1.000000
X_141_5                       1.000000
X_142_19                      1.000000
X_143_29                      1.000000
X_144_26                      1.000000
X_145_13                      1.000000
X_146_14                      1.000000
X_147_19                      1.000000
X_148_6                       1.000000
X_149_2                       1.000000
X_150_8                       1.000000
X_151_4                       1.000000
X_152_7                       1.000000
X_153_30                      1.000000
X_154_22                      1.000000
X_155_28                      1.000000
X_156_24                      1.000000
X_157_2                       1.000000
X_158_8                       1.000000
X_159_9                       1.000000
X_160_28                      1.000000
X_161_4                       1.000000
X_162_28                      1.000000
X_163_16                      1.000000
X_164_1                       1.000000
X_165_1                       1.000000
X_166_21                      1.000000
X_167_13                      1.000000
X_168_10                      1.000000
X_169_9                       1.000000
X_170_18                      1.000000
X_171_20                      1.000000
X_172_4                       1.000000
X_173_23                      1.000000
X_174_25                      1.000000
X_175_21                      1.000000
X_176_27                      1.000000
X_177_28                      1.000000
X_178_13                      1.000000
X_179_29                      1.000000
X_180_26                      1.000000
X_181_26                      1.000000
X_182_27                      1.000000
X_183_26                      1.000000
X_184_26                      1.000000
X_185_17                      1.000000
X_186_26                      1.000000
X_187_16                      1.000000
X_188_7                       1.000000
X_189_11                      1.000000
X_190_8                       1.000000
X_191_5                       1.000000
X_192_1                       1.000000
X_193_11                      1.000000
X_194_20                      1.000000
X_195_23                      1.000000
X_196_13                      1.000000
X_197_25                      1.000000
X_198_15                      1.000000
X_199_29                      1.000000
X_200_20                      1.000000
X_201_11                      1.000000
X_202_4                       1.000000
X_203_9                       1.000000
X_204_4                       1.000000
X_205_1                       1.000000
X_206_2                       1.000000
X_207_8                       1.000000
X_208_3                       1.000000
X_209_17                      1.000000
X_210_30                      1.000000
X_211_24                      1.000000
X_212_29                      1.000000
X_213_20                      1.000000
X_214_12                      1.000000
X_215_9                       1.000000
X_216_29                      1.000000
X_217_14                      1.000000
X_218_21                      1.000000
X_219_18                      1.000000
X_220_1                       1.000000
X_221_27                      1.000000
X_222_30                      1.000000
X_223_13                      1.000000
X_224_7                       1.000000
X_225_1                       1.000000
X_226_9                       1.000000
X_227_14                      1.000000
X_228_16                      1.000000
X_229_6                       1.000000
X_230_18                      1.000000
X_231_19                      1.000000
X_232_10                      1.000000
X_233_27                      1.000000
X_234_25                      1.000000
X_235_3                       1.000000
X_236_28                      1.000000
X_237_10                      1.000000
X_238_21                      1.000000
X_239_16                      1.000000
X_240_9                       1.000000
X_241_20                      1.000000
X_242_9                       1.000000
X_243_13                      1.000000
X_244_21                      1.000000
X_245_22                      1.000000
X_246_17                      1.000000
X_247_20                      1.000000
X_248_29                      1.000000
X_249_19                      1.000000
X_250_27                      1.000000
X_251_22                      1.000000
X_252_11                      1.000000
X_253_6                       1.000000
X_254_2                       1.000000
X_255_19                      1.000000
X_256_20                      1.000000
X_257_5                       1.000000
X_258_27                      1.000000
X_259_26                      1.000000
X_260_12                      1.000000
X_261_23                      1.000000
X_262_26                      1.000000
X_263_11                      1.000000
X_264_15                      1.000000
X_265_8                       1.000000
X_266_25                      1.000000
X_267_27                      1.000000
X_268_12                      1.000000
X_269_17                      1.000000
X_270_20                      1.000000
X_271_23                      1.000000
X_272_26                      1.000000
X_273_3                       1.000000
X_274_19                      1.000000
X_275_17                      1.000000
X_276_9                       1.000000
X_277_25                      1.000000
X_278_25                      1.000000
X_279_3                       1.000000
X_280_5                       1.000000
X_281_3                       1.000000
X_282_21                      1.000000
X_283_13                      1.000000
X_284_25                      1.000000
X_285_28                      1.000000
X_286_5                       1.000000
X_287_20                      1.000000
X_288_30                      1.000000
X_289_19                      1.000000
X_290_4                       1.000000
X_291_1                       1.000000
X_292_19                      1.000000
X_293_2                       1.000000
X_294_19                      1.000000
X_295_15                      1.000000
X_296_4                       1.000000
X_297_13                      1.000000
X_298_18                      1.000000
X_299_18                      1.000000
X_300_28                      1.000000
X_301_24                      1.000000
X_302_6                       1.000000
X_303_11                      1.000000
X_304_6                       1.000000
X_305_15                      1.000000
X_306_23                      1.000000
X_307_27                      1.000000
X_308_23                      1.000000
X_309_4                       1.000000
X_310_25                      1.000000
X_311_7                       1.000000
X_312_22                      1.000000
X_313_21                      1.000000
X_314_24                      1.000000
X_315_16                      1.000000
X_316_29                      1.000000
X_317_12                      1.000000
X_318_30                      1.000000
X_319_27                      1.000000
X_320_24                      1.000000
X_321_29                      1.000000
X_322_7                       1.000000
X_323_29                      1.000000
X_324_27                      1.000000
X_325_6                       1.000000
X_326_2                       1.000000
X_327_15                      1.000000
X_328_19                      1.000000
X_329_4                       1.000000
X_330_26                      1.000000
X_331_29                      1.000000
X_332_14                      1.000000
X_333_23                      1.000000
X_334_13                      1.000000
X_335_5                       1.000000
X_336_12                      1.000000
X_337_2                       1.000000
X_338_8                       1.000000
X_339_22                      1.000000
X_340_3                       1.000000
X_341_14                      1.000000
X_342_30                      1.000000
X_343_11                      1.000000
X_344_14                      1.000000
X_345_5                       1.000000
X_346_17                      1.000000
X_347_29                      1.000000
X_348_27                      1.000000
X_349_5                       1.000000
X_350_20                      1.000000
X_351_7                       1.000000
X_352_2                       1.000000
X_353_4                       1.000000
X_354_23                      1.000000
X_355_17                      1.000000
X_356_30                      1.000000
X_357_17                      1.000000
X_358_7                       1.000000
X_359_16                      1.000000
X_360_13                      1.000000
X_361_27                      1.000000
X_362_17                      1.000000
X_363_9                       1.000000
X_364_9                       1.000000
X_365_19                      1.000000
X_366_30                      1.000000
X_367_4                       1.000000
X_368_1                       1.000000
X_369_1                       1.000000
X_370_19                      1.000000
X_371_13                      1.000000
X_372_17                      1.000000
X_373_4                       1.000000
X_374_22                      1.000000
X_375_1                       1.000000
X_376_11                      1.000000
X_377_29                      1.000000
X_378_5                       1.000000
X_379_5                       1.000000
X_380_11                      1.000000
X_381_13                      1.000000
X_382_14                      1.000000
X_383_7                       1.000000
X_384_2                       1.000000
X_385_25                      1.000000
X_386_24                      1.000000
X_387_30                      1.000000
X_388_18                      1.000000
X_389_11                      1.000000
X_390_21                      1.000000
X_391_19                      1.000000
X_392_4                       1.000000
X_393_28                      1.000000
X_394_20                      1.000000
X_395_29                      1.000000
X_396_28                      1.000000
X_397_10                      1.000000
X_398_11                      1.000000
X_399_3                       1.000000
X_400_21                      1.000000
X_401_7                       1.000000
X_402_14                      1.000000
X_403_20                      1.000000
X_404_29                      1.000000
X_405_23                      1.000000
X_406_15                      1.000000
X_407_11                      1.000000
X_408_2                       1.000000
X_409_24                      1.000000
X_410_8                       1.000000
X_411_6                       1.000000
X_412_5                       1.000000
X_413_10                      1.000000
X_414_17                      1.000000
X_415_6                       1.000000
X_416_10                      1.000000
X_417_13                      1.000000
X_418_21                      1.000000
X_419_5                       1.000000
X_420_8                       1.000000
X_421_17                      1.000000
X_422_21                      1.000000
X_423_13                      1.000000
X_424_8                       1.000000
X_425_28                      1.000000
X_426_15                      1.000000
X_427_1                       1.000000
X_428_16                      1.000000
X_429_29                      1.000000
X_430_23                      1.000000
X_431_22                      1.000000
X_432_10                      1.000000
X_433_20                      1.000000
X_434_1                       1.000000
X_435_26                      1.000000
X_436_6                       1.000000
X_437_30                      1.000000
X_438_13                      1.000000
X_439_19                      1.000000
X_440_16                      1.000000
X_441_3                       1.000000
X_442_20                      1.000000
X_443_16                      1.000000
X_444_10                      1.000000
X_445_9                       1.000000
X_446_15                      1.000000
X_447_23                      1.000000
X_448_16                      1.000000
X_449_10                      1.000000
X_450_24                      1.000000
X_451_8                       1.000000
X_452_20                      1.000000
X_453_2                       1.000000
X_454_14                      1.000000
X_455_15                      1.000000
X_456_17                      1.000000
X_457_27                      1.000000
X_458_22                      1.000000
X_459_12                      1.000000
X_460_16                      1.000000
X_461_24                      1.000000
X_462_16                      1.000000
X_463_25                      1.000000
X_464_10                      1.000000
X_465_13                      1.000000
X_466_8                       1.000000
X_467_22                      1.000000
X_468_28                      1.000000
X_469_24                      1.000000
X_470_13                      1.000000
X_471_8                       1.000000
X_472_26                      1.000000
X_473_3                       1.000000
X_474_22                      1.000000
X_475_12                      1.000000
X_476_14                      1.000000
X_477_17                      1.000000
X_478_18                      1.000000
X_479_7                       1.000000
X_480_21                      1.000000
X_481_20                      1.000000
X_482_2                       1.000000
X_483_7                       1.000000
X_484_25                      1.000000
X_485_24                      1.000000
X_486_22                      1.000000
X_487_16                      1.000000
X_488_2                       1.000000
X_489_17                      1.000000
X_490_18                      1.000000
X_491_26                      1.000000
X_492_28                      1.000000
X_493_18                      1.000000
X_494_5                       1.000000
X_495_22                      1.000000
X_496_5                       1.000000
X_497_13                      1.000000
X_498_12                      1.000000
X_499_7                       1.000000
X_500_14                      1.000000
All other variables in the range 1-15001 are 0.
